Set parameter TokenServer to value "hpc-licenses.hpcc.usc.edu"
Set parameter TimeLimit to value 3600
Gurobi Optimizer version 9.5.1 build v9.5.1rc2 (linux64)
Thread count: 20 physical cores, 20 logical processors, using up to 20 threads
Optimize a model with 6007 rows, 4529 columns and 24534 nonzeros
Model fingerprint: 0x13052b39
Variable types: 4506 continuous, 23 integer (23 binary)
Coefficient statistics:
  Matrix range     [1e+00, 1e+00]
  Objective range  [3e-03, 8e+00]
  Bounds range     [1e+00, 1e+00]
  RHS range        [1e+00, 4e+01]
Found heuristic solution: objective 226.5220707
Presolve removed 1520 rows and 1515 columns
Presolve time: 0.08s
Presolved: 4487 rows, 3014 columns, 21975 nonzeros
Variable types: 2994 continuous, 20 integer (20 binary)

Root relaxation: objective 2.328275e+02, 2421 iterations, 0.12 seconds (0.15 work units)

    Nodes    |    Current Node    |     Objective Bounds      |     Work
 Expl Unexpl |  Obj  Depth IntInf | Incumbent    BestBd   Gap | It/Node Time

     0     0  232.82745    0    3  226.52207  232.82745  2.78%     -    0s
H    0     0                     226.6972842  232.82745  2.70%     -    0s
     0     0  232.60305    0    4  226.69728  232.60305  2.61%     -    0s
     0     0  232.59370    0    4  226.69728  232.59370  2.60%     -    0s
     0     0  232.51773    0    5  226.69728  232.51773  2.57%     -    0s
H    0     0                     232.0747399  232.30554  0.10%     -    0s
     0     0  232.30554    0    4  232.07474  232.30554  0.10%     -    0s
     0     0  232.27614    0    2  232.07474  232.27614  0.09%     -    0s

Cutting planes:
  Gomory: 2
  Implied bound: 6
  MIR: 26
  RLT: 2
  Relax-and-lift: 18

Explored 1 nodes (4413 simplex iterations) in 1.37 seconds (0.63 work units)
Thread count was 20 (of 20 available processors)

Solution count 3: 232.075 226.697 226.522 

Optimal solution found (tolerance 1.00e-04)
Best objective 2.320747399117e+02, best bound 2.320747399117e+02, gap 0.0000%



#########node  1
V1.9
#########node  2
0.3333333333333333,0.6666666666666666
#########node  3
1.0,0.0


Total Solving Time 1.7134888172149658
obj value 232.0747399116593
Policy Regret train (Sum) 10.475852471410601
Best Treatment Found train (%) 51.800000000000004
treatment classification acc train (%) 39.6
Policy Regret test (Sum) 171.07608036179815
Best Treatment Found test (%) 53.010000000000005
treatment classification acc test (%) 41.81
